c hello
p cnf 12 27
1 4 7 10 0
2 5 8 11 0
3 6 9 12 0
-2 -1 0
-3 -1 0
-3 -2 0
-5 -4 0
-6 -4 0
-6 -5 0
-8 -7 0
-9 -7 0
-9 -8 0
-11 -10 0
-12 -10 0
-12 -11 0
-5 -7 0
-8 -10 0
-6 -7 0
-9 -10 0
-4 -8 0
-7 -11 0
-6 -8 0
-9 -11 0
-4 -9 0
-7 -12 0
-5 -9 0
-8 -12 0
